c Command line: hgen8 145 20
p cnf 145 229
32 19 104 141 0
9 24 35 53 0
12 97 42 123 0
6 67 94 145 0
75 29 128 98 0
56 101 114 10 0
70 66 71 121 0
139 86 135 13 0
77 143 54 110 0
85 91 122 124 0
100 73 117 48 0
23 65 62 41 0
27 38 60 115 0
58 140 51 57 0
49 76 130 59 0
111 36 134 40 0
79 105 133 2 0
116 118 22 20 0
112 25 125 95 0
8 80 137 37 0
44 3 69 50 0
92 68 14 88 0
34 78 107 129 0
83 96 142 136 0
131 43 28 30 0
46 72 93 4 0
63 64 120 16 0
45 132 26 99 0
87 106 52 103 0
39 126 144 127 0
-2 -3 0
-2 -4 0
-3 -4 0
-6 -8 0
-6 -9 0
-6 -10 0
-8 -9 0
-8 -10 0
-9 -10 0
-12 -13 0
-12 -14 0
-13 -14 0
-16 -19 0
-16 -20 0
-19 -20 0
-22 -23 0
-22 -24 0
-22 -25 0
-23 -24 0
-23 -25 0
-24 -25 0
-26 -27 0
-26 -28 0
-26 -29 0
-26 -30 0
-27 -28 0
-27 -29 0
-27 -30 0
-28 -29 0
-28 -30 0
-29 -30 0
-32 -34 0
-32 -35 0
-34 -35 0
-36 -37 0
-36 -38 0
-36 -39 0
-36 -40 0
-37 -38 0
-37 -39 0
-37 -40 0
-38 -39 0
-38 -40 0
-39 -40 0
-41 -42 0
-41 -43 0
-41 -44 0
-41 -45 0
-42 -43 0
-42 -44 0
-42 -45 0
-43 -44 0
-43 -45 0
-44 -45 0
-46 -48 0
-46 -49 0
-46 -50 0
-48 -49 0
-48 -50 0
-49 -50 0
-51 -52 0
-51 -53 0
-51 -54 0
-52 -53 0
-52 -54 0
-53 -54 0
-56 -57 0
-56 -58 0
-56 -59 0
-56 -60 0
-57 -58 0
-57 -59 0
-57 -60 0
-58 -59 0
-58 -60 0
-59 -60 0
-62 -63 0
-62 -64 0
-62 -65 0
-63 -64 0
-63 -65 0
-64 -65 0
-66 -67 0
-66 -68 0
-66 -69 0
-66 -70 0
-67 -68 0
-67 -69 0
-67 -70 0
-68 -69 0
-68 -70 0
-69 -70 0
-71 -72 0
-71 -73 0
-71 -75 0
-72 -73 0
-72 -75 0
-73 -75 0
-76 -77 0
-76 -78 0
-76 -79 0
-76 -80 0
-77 -78 0
-77 -79 0
-77 -80 0
-78 -79 0
-78 -80 0
-79 -80 0
-83 -85 0
-86 -87 0
-86 -88 0
-87 -88 0
-91 -92 0
-91 -93 0
-91 -94 0
-91 -95 0
-92 -93 0
-92 -94 0
-92 -95 0
-93 -94 0
-93 -95 0
-94 -95 0
-96 -97 0
-96 -98 0
-96 -99 0
-96 -100 0
-97 -98 0
-97 -99 0
-97 -100 0
-98 -99 0
-98 -100 0
-99 -100 0
-101 -103 0
-101 -104 0
-101 -105 0
-103 -104 0
-103 -105 0
-104 -105 0
-106 -107 0
-106 -110 0
-107 -110 0
-111 -112 0
-111 -114 0
-111 -115 0
-112 -114 0
-112 -115 0
-114 -115 0
-116 -117 0
-116 -118 0
-116 -120 0
-117 -118 0
-117 -120 0
-118 -120 0
-121 -122 0
-121 -123 0
-121 -124 0
-121 -125 0
-122 -123 0
-122 -124 0
-122 -125 0
-123 -124 0
-123 -125 0
-124 -125 0
-126 -127 0
-126 -128 0
-126 -129 0
-126 -130 0
-127 -128 0
-127 -129 0
-127 -130 0
-128 -129 0
-128 -130 0
-129 -130 0
-131 -132 0
-131 -133 0
-131 -134 0
-131 -135 0
-132 -133 0
-132 -134 0
-132 -135 0
-133 -134 0
-133 -135 0
-134 -135 0
-136 -137 0
-136 -139 0
-136 -140 0
-137 -139 0
-137 -140 0
-139 -140 0
-141 -142 0
-141 -143 0
-141 -144 0
-141 -145 0
-142 -143 0
-142 -144 0
-142 -145 0
-143 -144 0
-143 -145 0
-144 -145 0
